c status 8 1469388256959
c status 7 1469388256959
s td 9 7 15
b 1 2 1 8 12 13
b 2 10 1 8 9 11
b 3 1 8 9 11 12 13
b 4 8 9 11 12 13 14
b 5 7 15 3 4 5 6
b 6 15 3 4 5 6 9 11
b 7 3 4 5 6 9 11 12
b 8 4 5 6 9 11 12 13
b 9 5 6 9 11 12 13 14
1 3
3 4
4 9
9 8
8 7
7 6
6 5
3 2
